param set_len = 46;
param target_sum = 16021381787;
param values := [1] 277663534 [2] 380999197 [3] 1068658752 [4] 536244969 [5] 845860558 [6] 169632668 [7] 444943642 [8] 393497216 [9] 532003803 [10] 270833130 [11] 359616744 [12] 374653597 [13] 1046366166 [14] 934935171 [15] 801744240 [16] 835391316 [17] 14765257 [18] 985633311 [19] 164015838 [20] 785143623 [21] 492169561 [22] 624350684 [23] 1064071579 [24] 747036850 [25] 579022280 [26] 1060642944 [27] 996643013 [28] 390717686 [29] 23799396 [30] 618721767 [31] 176992625 [32] 782199135 [33] 1047354567 [34] 943677406 [35] 992237282 [36] 373920602 [37] 991765108 [38] 676171897 [39] 387949396 [40] 864412554 [41] 167470498 [42] 776979428 [43] 98964318 [44] 1030085468 [45] 191692424 [46] 922676272 ;
